0 0 2 0
1 0 1 0
0 1 0 1
2 0 2 1
3 0 1 8
1 1 2 8
3 1 0 13
5 0 1 13
4 0 2 13
4 1 1 22
2 1 3 6
3 2 2 22
2 2 5 10
2 3 0 18
1 2 4 13
5 1 3 16
4 2 4 25
5 2 5 19
2 4 1 27
0 2 1 28
1 3 5 28
3 3 3 27
4 3 5 38
3 4 4 30
0 3 3 34
5 3 0 28
1 4 0 38
4 4 0 48
0 4 5 42
2 5 4 38
3 5 5 45
5 4 4 45
0 5 4 49
5 5 2 49
1 5 3 48
4 5 3 52

